
******************************************************************************
This program contains Ipopt, a library for large-scale nonlinear optimization.
 Ipopt is released as open source code under the Eclipse Public License (EPL).
         For more information visit http://projects.coin-or.org/Ipopt
******************************************************************************

This is Ipopt version 3.12.6, running with linear solver ma57.

Number of nonzeros in equality constraint Jacobian...:      866
Number of nonzeros in inequality constraint Jacobian.:      754
Number of nonzeros in Lagrangian Hessian.............:      490

Total number of variables............................:      128
                     variables with only lower bounds:        0
                variables with lower and upper bounds:       14
                     variables with only upper bounds:        0
Total number of equality constraints.................:      114
Total number of inequality constraints...............:      217
        inequality constraints with only lower bounds:        0
   inequality constraints with lower and upper bounds:       57
        inequality constraints with only upper bounds:      160

iter    objective    inf_pr   inf_du lg(mu)  ||d||  lg(rg) alpha_du alpha_pr  ls
   0  2.7987028e+04 3.49e+00 2.90e+00  -1.0 0.00e+00    -  0.00e+00 0.00e+00   0
   1  3.2301823e+04 2.37e+00 2.77e+01  -1.0 2.94e+00   0.0 5.56e-02 3.24e-01h  1
   2  3.5058218e+04 1.66e+00 1.91e+01  -1.0 1.94e+00  -0.5 2.90e-01 3.03e-01h  1
   3  3.6644018e+04 1.26e+00 1.33e+01  -1.0 1.05e+00  -1.0 4.72e-01 2.45e-01h  3
   4  4.1515245e+04 9.71e-02 3.46e+01  -1.0 6.15e-01  -0.5 9.90e-01 9.72e-01h  1
   5  4.1746953e+04 4.25e-04 3.94e+00  -1.0 6.04e-01  -0.1 9.93e-01 1.00e+00h  1
   6  4.1746073e+04 2.31e-02 1.93e+00  -1.0 8.81e-02    -  1.00e+00 1.00e+00h  1
   7  4.1746614e+04 5.52e-05 6.60e-03  -1.0 1.72e-02  -0.6 1.00e+00 1.00e+00h  1
   8  4.1742031e+04 1.20e-04 2.17e+00  -2.5 8.78e-02    -  8.44e-01 1.00e+00f  1
   9  4.1738478e+04 7.77e-05 3.06e-01  -2.5 5.01e-02  -1.1 1.00e+00 9.26e-01h  1
iter    objective    inf_pr   inf_du lg(mu)  ||d||  lg(rg) alpha_du alpha_pr  ls
  10  4.1738133e+04 2.31e-05 2.18e-03  -2.5 1.83e-02  -1.5 1.00e+00 1.00e+00h  1
  11  4.1737792e+04 1.14e-05 7.11e-04  -3.8 1.18e-02  -2.0 1.00e+00 1.00e+00h  1
  12  4.1737785e+04 2.07e-06 8.23e-04  -5.7 5.37e-03  -2.5 1.00e+00 9.97e-01h  1
  13  4.1737787e+04 8.15e-07 1.09e-05  -5.7 7.75e-04  -3.0 1.00e+00 1.00e+00h  1
  14  4.1737785e+04 1.12e+01 1.79e-03  -8.6 1.99e+00    -  1.00e+00 1.00e+00h  1
  15  4.1737786e+04 2.64e+00 2.55e-04  -8.6 4.80e+01    -  1.00e+00 1.00e+00h  1
  16  4.1737787e+04 3.81e-01 4.97e-05  -8.6 4.53e+01    -  1.00e+00 1.00e+00h  1
  17  4.1737787e+04 1.23e-02 9.92e-06  -8.6 2.61e+00    -  1.00e+00 1.00e+00h  1
  18  4.1737787e+04 1.47e-05 2.78e-08  -8.6 5.53e-02    -  1.00e+00 1.00e+00h  1
  19  4.1737787e+04 2.62e-11 2.11e-12  -8.6 5.81e-05    -  1.00e+00 1.00e+00h  1

Number of Iterations....: 19

                                   (scaled)                 (unscaled)
Objective...............:   1.0434440919464553e+03    4.1737786633628239e+04
Dual infeasibility......:   2.1082797545216377e-12    8.4331236563020106e-11
Constraint violation....:   2.6213697879029496e-11    2.6213697879029496e-11
Complementarity.........:   2.5059035798651481e-09    1.0023619832448468e-07
Overall NLP error.......:   2.5059035798651481e-09    1.0023619832448468e-07


Number of objective function evaluations             = 23
Number of objective gradient evaluations             = 20
Number of equality constraint evaluations            = 23
Number of inequality constraint evaluations          = 23
Number of equality constraint Jacobian evaluations   = 20
Number of inequality constraint Jacobian evaluations = 20
Number of Lagrangian Hessian evaluations             = 19
Total CPU secs in IPOPT (w/o function evaluations)   =      0.043
Total CPU secs in NLP function evaluations           =      0.010

EXIT: Optimal Solution Found.

************************ CUTEst statistics ************************


 Package used            :  IPOPT
 Problem                 :  ACOPR57   
 # variables             =             128
 # constraints           =             331
 # objective functions   =        0.4400000E+02
 # objective gradients   =        0.2100000E+02
 # objective Hessians    =        0.2000000E+02
 # Hessian-vector prdct  =        0.0000000E+00
 # constraints functions =        0.4500000E+02
 # constraints gradients =        0.2200000E+02
 # constraints Hessians  =        0.2000000E+02
 Exit code               =               0
 Final f                 =   0.4173779E+05
 Set up time             =            0.02 seconds
 Solve time              =            0.13 seconds


******************************************************************

System Time =       0.0329999998 s.
